NAME : ClusterId_257 
COMMENT : (Gillet and Johnson) 
TYPE : CVRP 
DIMENSION : 3 
EDGE_WEIGHT_TYPE : EUC_2D 
CAPACITY : 500 
NODE_COORD_SECTION 
257 0 -75 
88 -7 -92 
189 0 -78 
DEMAND_SECTION 
257 80
88 4
189 18
DEPOT_SECTION 
257
 -1
EOF